0 0 0 0
0 1 0 0
0 2 0 0
0 3 0 0
0 4 0 4
0 5 1 4
0 6 0 4
0 7 1 6
0 8 1 1
0 9 0 7
0 10 0 10
0 11 0 6
0 12 0 9
0 13 0 4
0 14 0 1
0 15 0 15
0 16 0 8
0 17 2 8
0 18 2 6
0 19 0 13
0 20 1 16
0 21 2 15
0 22 1 18
0 23 0 18
0 24 0 5
0 25 0 16
0 26 0 21
0 27 2 9
0 28 1 22
0 29 0 18
0 30 0 25
0 31 0 29
